c File: data_files/evolved_graphs/g5044.col
c
c Auto generated graph
c
p edge 100 30
e 1 97
e 2 45
e 3 49
e 3 61
e 4 10
e 5 50
e 6 82
e 8 39
e 9 53
e 10 71
e 11 51
e 13 73
e 14 43
e 14 59
e 15 74
e 16 25
e 17 55
e 17 74
e 19 61
e 20 56
e 21 33
e 22 52
e 23 76
e 24 26
e 29 60
e 30 59
e 32 67
e 34 88
e 38 40
e 70 78
